p cnf 999 625
129 0
135 0
172 0
216 0
299 0
334 0
349 0
386 0
532 0
541 0
557 0
579 0
611 0
648 0
656 0
684 0
731 0
762 0
813 0
875 0
922 0
939 0
953 0
967 0
976 0
-121 0
-122 0
-123 0
-124 0
-125 0
-126 0
-127 0
-128 0
-131 0
-132 0
-133 0
-134 0
-136 0
-137 0
-138 0
-139 0
-171 0
-173 0
-174 0
-175 0
-176 0
-177 0
-178 0
-179 0
-211 0
-212 0
-213 0
-214 0
-215 0
-217 0
-218 0
-219 0
-291 0
-292 0
-293 0
-294 0
-295 0
-296 0
-297 0
-298 0
-331 0
-332 0
-333 0
-335 0
-336 0
-337 0
-338 0
-339 0
-341 0
-342 0
-343 0
-344 0
-345 0
-346 0
-347 0
-348 0
-381 0
-382 0
-383 0
-384 0
-385 0
-387 0
-388 0
-389 0
-531 0
-533 0
-534 0
-535 0
-536 0
-537 0
-538 0
-539 0
-542 0
-543 0
-544 0
-545 0
-546 0
-547 0
-548 0
-549 0
-551 0
-552 0
-553 0
-554 0
-555 0
-556 0
-558 0
-559 0
-571 0
-572 0
-573 0
-574 0
-575 0
-576 0
-577 0
-578 0
-612 0
-613 0
-614 0
-615 0
-616 0
-617 0
-618 0
-619 0
-641 0
-642 0
-643 0
-644 0
-645 0
-646 0
-647 0
-649 0
-651 0
-652 0
-653 0
-654 0
-655 0
-657 0
-658 0
-659 0
-681 0
-682 0
-683 0
-685 0
-686 0
-687 0
-688 0
-689 0
-732 0
-733 0
-734 0
-735 0
-736 0
-737 0
-738 0
-739 0
-761 0
-763 0
-764 0
-765 0
-766 0
-767 0
-768 0
-769 0
-811 0
-812 0
-814 0
-815 0
-816 0
-817 0
-818 0
-819 0
-871 0
-872 0
-873 0
-874 0
-876 0
-877 0
-878 0
-879 0
-921 0
-923 0
-924 0
-925 0
-926 0
-927 0
-928 0
-929 0
-931 0
-932 0
-933 0
-934 0
-935 0
-936 0
-937 0
-938 0
-951 0
-952 0
-954 0
-955 0
-956 0
-957 0
-958 0
-959 0
-961 0
-962 0
-963 0
-964 0
-965 0
-966 0
-968 0
-969 0
-971 0
-972 0
-973 0
-974 0
-975 0
-977 0
-978 0
-979 0
-114 0
-224 0
-234 0
-314 0
-324 0
-115 0
-225 0
-235 0
-315 0
-325 0
-116 0
-226 0
-236 0
-316 0
-326 0
-119 0
-229 0
-239 0
-319 0
-329 0
-149 0
-159 0
-169 0
-249 0
-259 0
-269 0
-359 0
-369 0
-182 0
-192 0
-272 0
-282 0
-372 0
-392 0
-186 0
-196 0
-276 0
-286 0
-376 0
-396 0
-189 0
-199 0
-279 0
-289 0
-379 0
-399 0
-411 0
-421 0
-431 0
-511 0
-521 0
-621 0
-631 0
-412 0
-422 0
-432 0
-512 0
-522 0
-622 0
-632 0
-441 0
-451 0
-461 0
-561 0
-661 0
-446 0
-456 0
-466 0
-566 0
-666 0
-447 0
-457 0
-467 0
-567 0
-667 0
-448 0
-458 0
-468 0
-568 0
-668 0
-474 0
-484 0
-494 0
-584 0
-594 0
-674 0
-694 0
-479 0
-489 0
-499 0
-589 0
-599 0
-679 0
-699 0
-711 0
-721 0
-821 0
-831 0
-911 0
-712 0
-722 0
-822 0
-832 0
-912 0
-713 0
-723 0
-823 0
-833 0
-913 0
-719 0
-729 0
-829 0
-839 0
-919 0
-742 0
-752 0
-842 0
-852 0
-862 0
-942 0
-743 0
-753 0
-843 0
-853 0
-863 0
-943 0
-747 0
-757 0
-847 0
-857 0
-867 0
-947 0
-775 0
-785 0
-795 0
-885 0
-895 0
-985 0
-995 0
-776 0
-786 0
-796 0
-886 0
-896 0
-986 0
-996 0
-112 0
-142 0
-152 0
-162 0
-145 0
-155 0
-165 0
-185 0
-195 0
-246 0
-256 0
-266 0
-354 0
-364 0
-374 0
-394 0
-356 0
-366 0
-581 0
-591 0
-562 0
-582 0
-592 0
-517 0
-527 0
-587 0
-597 0
-519 0
-529 0
-569 0
-671 0
-691 0
-624 0
-634 0
-664 0
-626 0
-636 0
-676 0
-696 0
-628 0
-638 0
-678 0
-698 0
-741 0
-751 0
-771 0
-781 0
-791 0
-772 0
-782 0
-792 0
-883 0
-893 0
-825 0
-835 0
-845 0
-855 0
-865 0
-982 0
-992 0
-983 0
-993 0
-916 0
-946 0
-917 0
-987 0
-997 0
-949 0
-989 0
-999 0
-111 0
-311 0
-113 0
-313 0
-413 0
-513 0
-416 0
-516 0
-716 0
-222 0
-322 0
-429 0
-629 0
-231 0
-232 0
-434 0
-834 0
-435 0
-635 0
-439 0
-639 0
-141 0
-241 0
-841 0
-941 0
-148 0
-248 0
-748 0
-848 0
-948 0
-449 0
-749 0
-849 0
-153 0
-253 0
-353 0
-453 0
-156 0
-756 0
-856 0
-157 0
-257 0
-357 0
-262 0
-362 0
-462 0
-662 0
-167 0
-267 0
-367 0
-472 0
-672 0
-275 0
-375 0
-475 0
-675 0
-476 0
-779 0
-184 0
-284 0
-784 0
-884 0
-984 0
-486 0
-586 0
-799 0
-899 0
312 0
419 0
692 0
669 0
-317 0
-318 0
-414 0
-415 0
-417 0
-418 0
-663 0
-665 0
-693 0
-695 0
-697 0
-459 0
-469 0
-482 0
-492 0
-352 0
-869 0
-892 0
882 0
625 0
-623 0
-627 0
-881 0
-887 0
-888 0
-889 0
-425 0
-515 0
-525 0
-725 0
789 0
859 0
-783 0
-787 0
-788 0
-851 0
-854 0
-858 0
-759 0
861 0
-864 0
-866 0
-868 0
-891 0
-161 0
-261 0
-361 0
758 0
166 0
-163 0
-164 0
-168 0
-754 0
-755 0
-146 0
-718 0
-728 0
-778 0
-798 0
-158 0
-258 0
-358 0
197 0
-191 0
-193 0
-194 0
-198 0
-187 0
-277 0
-287 0
-377 0
-397 0
-117 0
-147 0
-497 0
-797 0
-897 0
118 0
247 0
274 0
777 0
327 0
717 0
487 0
-242 0
-243 0
-244 0
-245 0
-271 0
-273 0
-278 0
-321 0
-323 0
-328 0
-714 0
-715 0
-773 0
-774 0
-227 0
-237 0
-228 0
-238 0
-727 0
-827 0
-837 0
-188 0
-254 0
-264 0
-518 0
-918 0
-427 0
-477 0
-677 0